0 0 0 0
0 1 2 0
0 2 0 0
0 3 2 0
0 4 1 6
0 5 2 6
0 6 0 8
0 7 2 6
0 8 0 6
0 9 0 9
0 10 1 9
0 11 0 16
0 12 1 10
0 13 0 15
0 14 0 17
0 15 1 23
0 16 2 13
0 17 1 18
0 18 2 18
0 19 0 23
0 20 2 24
0 21 0 24
0 22 2 24
0 23 0 18
0 24 2 28
0 25 1 25
0 26 0 32
0 27 0 28
0 28 0 33
0 29 0 33
0 30 0 32
0 31 0 38
